* #variable= 45 #constraint= 1 #product= 80 sizeproduct= 160
min: +2 x1 x14 -2 x1 -4 x14 +2 x1 x34 +2 x1 x35 -2 x1 x39 +2 x2 x3 -2 x2 -2 x3 +2 x2 x31 -4 x31 +2 x3 x4 -2 x4 +2 x3 x8 -4 x8 -2 x3 x43 +2 x4 x9 -4 x9 +2 x5 x7 -2 x5 -4 x7 +2 x5 x11 -2 x11 +2 x6 x7 -2 x6 +2 x6 x11 +2 x7 x13 -2 x13 +2 x7 x42 +2 x8 x19 -4 x19 +2 x8 x28 -2 x28 +2 x8 x44 +2 x9 x10 -2 x10 +2 x9 x18 -2 x18 +2 x9 x43 +2 x10 x19 +2 x11 x36 -2 x11 x40 -2 x12 x13 +2 x12 -2 x12 x38 +2 x12 x40 -2 x12 x45 +2 x13 x14 +2 x13 x25 -2 x25 +2 x14 x16 -2 x16 +2 x14 x40 -2 x15 x17 -2 x15 -2 x17 +2 x15 x25 +2 x15 x35 +2 x15 x41 +2 x16 x17 +2 x16 x26 -2 x26 -2 x16 x44 +2 x17 x18 +2 x17 x43 +2 x18 x30 -2 x30 -2 x18 x35 +2 x19 x20 -2 x20 +2 x19 x29 -2 x29 +2 x20 x30 -2 x21 x22 +2 x21 +2 x22 -2 x21 x23 -2 x23 -2 x22 x24 -2 x24 -2 x22 x36 +2 x22 x38 +2 x23 x24 +2 x23 x42 +2 x23 x45 +2 x24 x26 +2 x24 x39 -2 x25 x27 -2 x27 +2 x25 x36 +2 x26 x27 -2 x26 x42 +2 x27 x28 +2 x27 x44 +2 x28 x29 -2 x28 x37 +2 x29 x31 -2 x29 x34 +2 x30 x32 -2 x32 -2 x30 x33 +2 x31 x32 +2 x31 x33 +2 x33 x34 -2 x33 x35 -2 x34 x37 -2 x36 x41 +2 x37 x39 +2 x37 x41 -2 x39 x40 -2 x41 x42 -2 x43 x44 ;
+1 x1 >= 0 ;
